200
1000
300
298
298
297
295
294
293
292
292
290
290
289
289
289
288
288
288
288
287
287
286
286
286
285
284
283
282
282
282
281
278
277
276
275
275
274
273
272
272
272
272
271
270
269
268
267
267
266
266
265
263
263
263
262
260
259
259
258
256
255
254
254
253
251
249
249
248
247
246
245
245
241
241
238
234
233
233
231
230
228
227
227
227
225
224
223
223
221
219
219
219
218
217
216
214
214
214
214
210
209
208
207
204
204
204
203
202
200
199
198
197
194
194
192
192
192
191
190
190
190
189
188
187
186
185
183
182
181
181
181
179
178
173
173
171
171
171
169
168
167
167
165
165
165
163
160
159
158
158
157
157
154
153
153
151
151
151
151
149
148
146
145
144
142
141
141
141
139
139
139
136
135
134
134
134
131
130
127
125
123
123
121
120
119
119
119
118
118
116
116
115
115
112
111
110
107
107
106
105
105
